# density-fitted MP2 energies and gradients with 6-31g

molecule h20 {
-1 1
C 0.0000000000 0.0000000000 0.0000000000
X 0.0000000000 0.0000000000 1.0000000000
H 0.0000000000 0.7257072113 -0.8648641763
H 0.6284808807 -0.3628536057 -0.8648641763
H -0.6284808807 -0.3628536057 -0.8648641763
}

set reference rhf
set basis 6-31g

gradient('mp2')
