# density-fitted MP2 energies and gradients with 6-31g

molecule h20 {
-1 1
C 0.0000000000 0.0000000000 0.0000000000
X 0.0000000000 0.0000000000 1.0000000000
H 0.0000000000 1.1118479532 0.1960487926
H 0.9628885726 -0.5559239766 0.1960487926
H -0.9628885726 -0.5559239766 0.1960487926
}

set reference rhf
set basis 6-31g

gradient('mp2')
