# density-fitted hartree fock energies and gradients with 6-31g
molecule o2 {
0 3
O 0.0000000000 0.0000000000 0.0000000000
O 0.0000000000 0.0000000000 0.8285714286
}

set basis 6-31g
set reference rohf

energy('scf')
