# density fitted hartree fock 
molecule h2o {
0 1
H 0.0000000000 0.0000000000 1.2000000000
H 0.0000000000 1.0239611235 -0.4018751268
O 0.0000000000 0.0000000000 0.0000000000
}

set basis 6-31g
energy('hf')

