# density-fitted MP2 energies and gradients with 6-31g

molecule h20 {
-1 1
C 0.0000000000 0.0000000000 0.0000000000
X 0.0000000000 0.0000000000 1.0000000000
H 0.0000000000 0.8648641763 0.7257072113
H 0.7489943475 -0.4324320881 0.7257072113
H -0.7489943475 -0.4324320881 0.7257072113
}

set reference rhf
set basis 6-31g

gradient('mp2')
