# density fitted MP2 
molecule h2o {
0 1
H 0.00 0.00 0.00
H 0.00 0.00 0.00
O 0.00 0.00 0.00
}

set basis 6-31g
energy('mp2')

