# density-fitted MP2 energies and gradients with 6-31g

molecule h20 {
-1 1
C 0.0000000000 0.0000000000 0.0000000000
X 0.0000000000 0.0000000000 1.0000000000
H 0.0000000000 1.1247038141 0.0983988336
H 0.9740220748 -0.5623519071 0.0983988336
H -0.9740220748 -0.5623519071 0.0983988336
}

set reference rhf
set basis 6-31g

gradient('mp2')
