# density-fitted MP2 energies and gradients with 6-31g

molecule h20 {
-1 1
C 0.0000000000 0.0000000000 0.0000000000
X 0.0000000000 0.0000000000 1.0000000000
H 0.0000000000 1.0232214916 0.4771360175
H 0.8861358054 -0.5116107458 0.4771360175
H -0.8861358054 -0.5116107458 0.4771360175
}

set reference rhf
set basis 6-31g

gradient('mp2')
