# density fitted hartree fock 
molecule h2o {
0 1
H 0.0000000000 0.0000000000 0.8500000000
H 0.0000000000 0.8286887254 -0.1891427939
O 0.0000000000 0.0000000000 0.0000000000
}

set basis 6-31g
energy('hf')

