# density-fitted MP2 energies and gradients with 6-31g

molecule h20 {
0 2
C 0.000 0.000 0.000
H 0.000 -1.000 0.000
H 0.000 1.000 0.000
H 1.000 0.000 0.000
}

set reference uhf
set basis 6-31g

gradient('mp2')
