# density-fitted hartree fock energies and gradients with 6-31g
molecule h20 {
0 1
O 0.0000 0.0000 0.000
O 0.000 0.000 1.000
}

set basis 6-31g

gradient('hf')
