# density fitted MP2 
molecule h2o {
0 1
H 0.0000000000 0.0000000000 1.2000000000
H 0.0000000000 1.1086554390 -0.4592201188
O 0.0000000000 0.0000000000 0.0000000000
}

set basis 6-31g
energy('mp2')

