# density-fitted MP2 energies and gradients with 6-31g

molecule h20 {
-1 1
C 0.0000000000 0.0000000000 0.0000000000
X 0.0000000000 0.0000000000 1.0000000000
H 0.0000000000 1.0609129689 -0.3861407418
H 0.9187775822 -0.5304564844 -0.3861407418
H -0.9187775822 -0.5304564844 -0.3861407418
}

set reference rhf
set basis 6-31g

gradient('mp2')
