# density fitted hartree fock 
molecule h2o {
0 1
H 0.0000000000 0.0000000000 1.0250000000
H 0.0000000000 0.8876760389 -0.5125000000
O 0.0000000000 0.0000000000 0.0000000000
}

set basis 6-31g
energy('hf')

