# density-fitted MP2 energies and gradients with 6-31g

molecule h20 {
-1 1
C 0.0000000000 0.0000000000 0.0000000000
X 0.0000000000 0.0000000000 1.0000000000
H 0.0000000000 0.9248226580 -0.6475677966
H 0.8009199158 -0.4624113290 -0.6475677966
H -0.8009199158 -0.4624113290 -0.6475677966
}

set reference rhf
set basis 6-31g

gradient('mp2')
