# density-fitted MP2 energies and gradients with 6-31g

molecule h20 {
-1 1
C 0.0000000000 0.0000000000 0.0000000000
X 0.0000000000 0.0000000000 1.0000000000
H 0.0000000000 1.0905302579 0.2922067019
H 0.9444269069 -0.5452651289 0.2922067019
H -0.9444269069 -0.5452651289 0.2922067019
}

set reference rhf
set basis 6-31g

gradient('mp2')
