molecule h20 {
0 1
O 0.0000 0.0000 0.000
O 0.000 0.000 1.000
}

set basis 6-31g

energy('hf')

molecule h20 {
0 1
O 0.0000 0.0000 0.000
O 0.000 0.000 1.100
}
energy('hf')
molecule h20 {
0 1
O 0.0000 0.0000 0.000
O 0.000 0.000 1.200
}
energy('hf')
