# density-fitted MP2 energies and gradients with 6-31g

molecule h20 {
-1 1
C 0.0000000000 0.0000000000 0.0000000000
X 0.0000000000 0.0000000000 1.0000000000
H 0.0000000000 0.9777426809 -0.5645000000
H 0.8467500000 -0.4888713404 -0.5645000000
H -0.8467500000 -0.4888713404 -0.5645000000
}

set reference rhf
set basis 6-31g

gradient('mp2')
