# density fitted hartree fock 
molecule h2o {
0 1
H 0.0000000000 0.0000000000 1.1000000000
H 0.0000000000 0.9261815166 -0.2113948873
O 0.0000000000 0.0000000000 0.0000000000
}

set basis 6-31g
energy('hf')

