# density fitted hartree fock 
molecule h2o {
0 1
H 0.0000000000 0.0000000000 0.9500000000
H 0.0000000000 0.8899477436 -0.1341380396
O 0.0000000000 0.0000000000 0.0000000000
}

set basis 6-31g
energy('hf')

