# density-fitted MP2 energies and gradients with 6-31g

molecule h20 {
-1 1
C 0.0000000000 0.0000000000 0.0000000000
X 0.0000000000 0.0000000000 1.0000000000
H 0.0000000000 0.7983235560 -0.7983235560
H 0.6913684799 -0.3991617780 -0.7983235560
H -0.6913684799 -0.3991617780 -0.7983235560
}

set reference rhf
set basis 6-31g

gradient('mp2')
