# density fitted hartree fock 
molecule h2o {
0 1
H 0.0000000000 0.0000000000 1.1500000000
H 0.0000000000 1.0033514461 -0.3094929331
O 0.0000000000 0.0000000000 0.0000000000
}

set basis 6-31g
energy('hf')

