# density fitted hartree fock 
molecule h2o {
0 1
H 0.0000000000 0.0000000000 0.9500000000
H 0.0000000000 0.9077941655 -0.2800174157
O 0.0000000000 0.0000000000 0.0000000000
}

set basis 6-31g
energy('hf')

